(declare-fun X_0 () Real)
(declare-fun X_1 () Real)
(declare-fun Y_0 () Real)
(declare-fun Y_1 () Real)
(declare-fun Y_2 () Real)

(assert (<= X_0 -0.15))
(assert (>= X_0 -0.22))
(assert (<= X_1 2.2))
(assert (>= X_1 2.0))

(assert (<= Y_0 8.31))
(assert (>= Y_0 8.3))
(assert (<= Y_1 8.7))
(assert (>= Y_1 8.66))
(assert (<= Y_2 8.7))
(assert (>= Y_2 8.65))

